<number of tasks>
20

<cycle time>
1000

<order strength>
0,505


<task times>
1 552
2 492
3 339
4 409
5 615
6 613
7 288
8 460
9 463
10 611
11 354
12 414
13 492
14 558
15 618
16 442
17 600
18 373
19 143
20 388

<precedence relations>
1,9
2,9
3,4
3,5
3,6
3,7
3,8
4,9
5,9
6,10
7,15
7,18
8,10
9,11
9,12
9,13
9,14
10,18
10,19
11,17
12,18
13,17
14,15
14,16
15,19
15,20
16,19
17,18

<end>
